1565
15 83 52 92 61 32 81 93 22 6 14 43 99 75 82 38 23 12 49 34 20 74 18 29 35 39 30 60 89 24 56 67 44 17 90 50 1 63 97 70 2 59 85 86 91 66 87 36 76 58 68 45 27 42 41 21 80 40 98 79 48 55 19 53 16 4 46 71 8 77 5 51 96 94 33 47 73 26 54 11 13 28 72 65 69 64 31 78 25 9 10 62 57 3 84 7 37 95 88 
